Version identifier: 20.1.0.0 | 2020-11-10 | 9bedb6d68
CPXPARAM_Threads                                 1
CPXPARAM_TimeLimit                               7200
CPXPARAM_MIP_Tolerances_MIPGap                   0
Generic callback                                 0x60
1 of 1 MIP starts provided solutions.
MIP start 'm1' defined initial solution with objective 812.0451.
Tried aggregator 1 time.
Reduced MIP has 1 rows, 1001 columns, and 1000 nonzeros.
Reduced MIP has 1000 binaries, 0 generals, 0 SOSs, and 0 indicators.
Presolve time = 0.00 sec. (0.30 ticks)
Probing time = 0.00 sec. (0.11 ticks)
Tried aggregator 1 time.
Reduced MIP has 1 rows, 1001 columns, and 1000 nonzeros.
Reduced MIP has 1000 binaries, 0 generals, 0 SOSs, and 0 indicators.
Presolve time = 0.00 sec. (0.31 ticks)
Probing time = 0.00 sec. (0.11 ticks)
MIP emphasis: balance optimality and feasibility.
MIP search method: dynamic search.
Parallel mode: none, using 1 thread.
Root relaxation solution time = 0.00 sec. (0.21 ticks)

        Nodes                                         Cuts/
   Node  Left     Objective  IInf  Best Integer    Best Bound    ItCnt     Gap

*     0+    0                          812.0451     2716.0000           234.46%
      0     0     1010.2971     2      812.0451     2716.0000        0  234.46%
      0     0      976.5234     4      812.0451 UserPurge2: 1       12   20.25%
      0     0      952.9520     6      812.0451 UserPurge2: 1       23   17.35%
      0     0      930.0651     7      812.0451 UserPurge2: 1       31   14.53%
      0     0      909.4391     8      812.0451 UserPurge2: 1       64   11.99%
      0     0      904.7560     9      812.0451 UserPurge2: 1       85   11.42%
      0     0      896.9650     9      812.0451 UserPurge2: 1      117   10.46%
      0     0      886.1113     7      812.0451 UserPurge2: 1      145    9.12%
      0     0      880.0306     7      812.0451 UserPurge2: 1      167    8.37%
      0     0      878.1046     9      812.0451 UserPurge1: 1      179    8.13%
      0     0      875.9202     9      812.0451 UserPurge2: 1      195    7.87%
      0     0      871.3858     9      812.0451 UserPurge2: 1      208    7.31%
      0     0      869.8526    10      812.0451 UserPurge2: 1      225    7.12%
      0     0      869.7795    11      812.0451 UserPurge1: 1      228    7.11%
      0     0      868.2125    10      812.0451 UserPurge2: 1      245    6.92%
      0     0      865.0333     9      812.0451 UserPurge2: 1      258    6.53%
      0     0      862.5855     9      812.0451 UserPurge2: 1      268    6.22%
      0     0      860.3325    10      812.0451 UserPurge2: 1      281    5.95%
      0     0      857.4419    10      812.0451 UserPurge2: 1      302    5.59%
      0     0      852.6605     9      812.0451 UserPurge2: 1      330    5.00%
      0     0      849.1861    10      812.0451 UserPurge2: 1      345    4.57%
      0     0      846.6463    10      812.0451 UserPurge2: 1      368    4.26%
      0     0      845.4968     9      812.0451 UserPurge2: 1      372    4.12%
      0     0      842.7344     9      812.0451 UserPurge2: 1      383    3.78%
      0     0      841.7670     9      812.0451 UserPurge2: 1      396    3.66%
      0     0      841.1665    10      812.0451 UserPurge2: 1      402    3.59%
      0     0      840.5672    11      812.0451 UserPurge2: 1      416    3.51%
      0     0      840.1319    12      812.0451 UserPurge2: 1      421    3.46%
      0     0      837.3060    10      812.0451 UserPurge2: 1      451    3.11%
      0     0      836.2051    10      812.0451 UserPurge2: 1      464    2.98%
      0     0      836.0057    11      812.0451 UserPurge2: 1      469    2.95%
      0     0      835.8375    12      812.0451 UserPurge2: 1      473    2.93%
      0     0      835.3948    11      812.0451 UserPurge2: 1      483    2.88%
      0     0      833.8171    10      812.0451 UserPurge2: 1      504    2.68%
      0     0      833.3195    11      812.0451 UserPurge2: 1      513    2.62%
      0     0      832.5054    10      812.0451 UserPurge2: 1      524    2.52%
      0     0      832.4734    11      812.0451 UserPurge2: 1      529    2.52%
      0     0      832.2674    11      812.0451 UserPurge2: 1      542    2.49%
      0     0      832.0465    12      812.0451 UserPurge2: 1      553    2.46%
      0     0      831.6694    11      812.0451 UserPurge2: 1      565    2.42%
      0     0      831.5215    12      812.0451 UserPurge2: 1      576    2.40%
      0     0      831.2462    12      812.0451 UserPurge2: 1      585    2.36%
      0     0      831.0413    13      812.0451 UserPurge2: 1      594    2.34%
      0     0      830.8660    14      812.0451 UserPurge2: 1      606    2.32%
      0     0      830.7301    15      812.0451 UserPurge2: 1      616    2.30%
      0     0      829.7648    15      812.0451 UserPurge2: 1      651    2.18%
      0     0      828.8833    13      812.0451 UserPurge2: 1      663    2.07%
      0     0      828.2372    14      812.0451 UserPurge2: 1      678    1.99%
      0     0      827.6285    13      812.0451 UserPurge2: 1      694    1.92%
      0     0      827.1336    13      812.0451 UserPurge2: 1      708    1.86%
      0     0      826.7095    12      812.0451 UserPurge2: 1      724    1.81%
      0     0      826.6221    13      812.0451 UserPurge2: 1      729    1.80%
      0     0      826.5523    14      812.0451 UserPurge2: 1      735    1.79%
      0     0      826.2844    13      812.0451 UserPurge2: 1      750    1.75%

Repeating presolve.
Tried aggregator 1 time.
MIP Presolve eliminated 0 rows and 252 columns.
Reduced MIP has 1 rows, 749 columns, and 748 nonzeros.
Reduced MIP has 748 binaries, 0 generals, 0 SOSs, and 0 indicators.
Presolve time = 0.00 sec. (0.28 ticks)
Probing time = 0.00 sec. (0.08 ticks)
Tried aggregator 1 time.
Reduced MIP has 1 rows, 749 columns, and 748 nonzeros.
Reduced MIP has 748 binaries, 0 generals, 0 SOSs, and 0 indicators.
Presolve time = 0.00 sec. (0.23 ticks)
Represolve time = 0.02 sec. (8.27 ticks)
Probing time = 0.00 sec. (0.08 ticks)
MIP emphasis: balance optimality and feasibility.
MIP search method: dynamic search.
Parallel mode: none, using 1 thread.
Root relaxation solution time = 0.00 sec. (4.17 ticks)

        Nodes                                         Cuts/
   Node  Left     Objective  IInf  Best Integer    Best Bound    ItCnt     Gap

*     0+    0                          812.0451      826.2844             1.75%
      0     0      826.2844    13      812.0451      826.2844      812    1.75%
      0     0      826.1378    12      812.0451 UserPurge2: 1      822    1.74%
      0     2      826.1378    12      812.0451      826.1372      822    1.74%
Elapsed time = 7.92 sec. (206.45 ticks, tree = 0.01 MB, solutions = 1)
      1     3      815.5356    26      812.0451      826.0555    23946    1.73%
      2     2        cutoff            812.0451      815.5356    24980    0.43%
*     4     2      integral     0      815.4656      815.5356    25241    0.01%
      6     2      815.5034    24      815.4656      815.5034    30311    0.00%
      7     1        cutoff            815.4656      815.5033    30916    0.00%

User cuts applied:  2931

Root node processing (before b&c):
  Real time             =    7.92 sec. (212.73 ticks)
Sequential b&c:
  Real time             =  216.97 sec. (38093.28 ticks)
                          ------------
Total (root+branch&cut) =  224.90 sec. (38306.01 ticks)
@Parameters: 
is_S_cut                                true
is_add_all_yinF                         true
is_start_value                          true
is_usercut                              true
is_visualization                        false
uc_only_rootnode                        false

data                                    Qi
fn                                      data/Qi/instance_500_1000.csv
mode                                    NewSubmodular
solver                                  cplex

p                                       5
r                                       50

EPS                                     1.0e-06
EPS_vio                                 1.0e-04
beta                                    0.10
gap                                     0.00
nodelimit                               Inf
timelimit                               7200.00


@PrintInfos
ItCnt: 30970
Current gap: 0.00 %
Termination Status: OPTIMAL
Primal Status: FEASIBLE_POINT
Solve Time: 224.90 sec
Objective Value: 815.465575
Number of Nodes:      9

CutInfo: [phase] num / time (sec) 
ZLP             [phase1]     0 / 0.00 [rLC]     0 / 0.00 [rUC]     0 / 0.00 [sLC]     0 / 0.00 [sUC]     0 / 0.00 
OldSubmodular   [phase1]     0 / 0.00 [rLC]     0 / 0.00 [rUC]     0 / 0.00 [sLC]     0 / 0.00 [sUC]     0 / 0.00 
NewSubmodular   [phase1]     0 / 0.00 [rLC]    44 / 3.19 [rUC]    56 / 2.53 [sLC]     1 / 0.95 [sUC]  2915 / 178.90 
PMP             [phase1]     0 / 0.00 [rLC]     2 / 0.65 [rUC]     0 / 0.00 [sLC]     2 / 0.92 [sUC]     9 / 3.99 
Separation Round: [phase1] 0  [rLC] 45  [rUC] 56  [sLC] 2  [sUC] 1397
Root Best Bound 815.535577
Root Best Integer: 812.045135
Best Bound: 815.465575
Best Integer: 815.465575

